254,189
237,336
201,406
681,496
999,724
708,459
741,406
977,110
947,364
721,326
690,347
628,379
488,672
282,535
425,323
523,188
723,140
721,326
741,406
760,909
751,850
510,461
425,323
254,189
570,64
616,-8
628,379
510,461
488,140
523,188
